NAME : eil101.tsp
COMMENT : Optimal tour for eil101.tsp
TYPE : TOUR
DIMENSION : 101
Total Length: 718.9506495403942
TOUR_SECTION
1
50
76
77
3
79
78
34
81
33
51
9
35
71
65
66
20
30
32
90
63
64
49
36
19
11
62
10
70
31
88
7
82
48
47
46
8
45
83
18
60
5
84
17
61
99
96
59
93
85
91
100
98
37
92
97
95
13
94
6
89
52
69
27
101
53
28
26
12
54
80
68
29
24
55
25
39
67
23
56
4
72
74
75
22
41
73
21
40
58
2
87
57
15
43
38
86
16
44
14
42
-1
EOF
